Geometry = GenFormat {
72  S
O N C H
1  1    0.4912940995E+00    0.1051135182E+02    0.1770053882E+01
2  1    0.2095845930E+01    0.1499233435E+02    0.1770053882E+01
3  1   -0.2587075242E+01    0.1414142841E+02    0.1770053882E+01
4  1    0.1095336307E+02    0.9311225107E+01    0.1770053882E+01
5  1    0.9348811236E+01    0.4830242576E+01    0.1770053882E+01
6  1    0.1403173241E+02    0.5681148516E+01    0.1770053882E+01
7  2    0.3122736515E+01    0.1102345538E+02    0.1770053882E+01
8  2    0.3366387315E+00    0.1701517716E+02    0.1770053882E+01
9  2   -0.3459304180E+01    0.1160648863E+02    0.1770053882E+01
10  2    0.8321920652E+01    0.8799121544E+01    0.1770053882E+01
11  2    0.1110801843E+02    0.2807399767E+01    0.1770053882E+01
12  2    0.1490396135E+02    0.8216088292E+01    0.1770053882E+01
13  3    0.2738848237E+00    0.1174599579E+02    0.1770053882E+01
14  3    0.1135315689E+01    0.1418673166E+02    0.1770053882E+01
15  3   -0.1409137938E+01    0.1371238601E+02    0.1770053882E+01
16  3    0.1117077234E+02    0.8076581134E+01    0.1770053882E+01
17  3    0.1030934148E+02    0.5635845267E+01    0.1770053882E+01
18  3    0.1285379510E+02    0.6110190920E+01    0.1770053882E+01
19  3    0.1390652809E+01    0.1272325013E+02    0.1770053882E+01
20  3   -0.2693944207E+00    0.1466525551E+02    0.1770053882E+01
21  3   -0.1121196182E+01    0.1225660874E+02    0.1770053882E+01
22  3    0.1005400436E+02    0.7099326800E+01    0.1770053882E+01
23  3    0.1171405159E+02    0.5157321416E+01    0.1770053882E+01
24  3    0.1256585335E+02    0.7565968190E+01    0.1770053882E+01
25  3    0.2726943723E+01    0.1232102009E+02    0.1770053882E+01
26  3   -0.5891953874E+00    0.1602363339E+02    0.1770053882E+01
27  3   -0.2137685531E+01    0.1130046435E+02    0.1770053882E+01
28  3    0.8717713444E+01    0.7501556835E+01    0.1770053882E+01
29  3    0.1203385255E+02    0.3798943538E+01    0.1770053882E+01
30  3    0.1358234270E+02    0.8522112575E+01    0.1770053882E+01
31  3    0.4429597059E+01    0.1050295833E+02    0.1770053882E+01
32  3    0.1339886074E+00    0.1840720196E+02    0.1770053882E+01
33  3   -0.4563507679E+01    0.1073497600E+02    0.1770053882E+01
34  3    0.7015060107E+01    0.9319618596E+01    0.1770053882E+01
35  3    0.1131066856E+02    0.1415374962E+01    0.1770053882E+01
36  3    0.1600816485E+02    0.9087600924E+01    0.1770053882E+01
37  3    0.4588052286E+01    0.9095761869E+01    0.1770053882E+01
38  3    0.1273440434E+01    0.1924801090E+02    0.1770053882E+01
39  3   -0.5861395496E+01    0.1130136571E+02    0.1770053882E+01
40  3    0.6856604881E+01    0.1072681506E+02    0.1770053882E+01
41  3    0.1017121673E+02    0.5745660291E+00    0.1770053882E+01
42  3    0.1730605266E+02    0.8521211220E+01    0.1770053882E+01
43  3    0.5591722862E+01    0.1131058314E+02    0.1770053882E+01
44  3   -0.1146489763E+01    0.1900983709E+02    0.1770053882E+01
45  3   -0.4445164810E+01    0.9324731619E+01    0.1770053882E+01
46  3    0.5852934305E+01    0.8511993782E+01    0.1770053882E+01
47  3    0.1259114693E+02    0.8127398370E+00    0.1770053882E+01
48  3    0.1588982198E+02    0.1049784531E+02    0.1770053882E+01
49  4    0.3708534793E+01    0.8453209853E+01    0.1770053882E+01
50  4    0.2269659392E+01    0.1880758834E+02    0.1770053882E+01
51  4   -0.5978087233E+01    0.1238432811E+02    0.1770053882E+01
52  4    0.7736122374E+01    0.1136936707E+02    0.1770053882E+01
53  4    0.9174997774E+01    0.1014988585E+01    0.1770053882E+01
54  4    0.1742274440E+02    0.7438248819E+01    0.1770053882E+01
55  4    0.3496985145E+01    0.1309867424E+02    0.1770053882E+01
56  4   -0.1647683000E+01    0.1630168721E+02    0.1770053882E+01
57  4   -0.1849243745E+01    0.1024476023E+02    0.1770053882E+01
58  4    0.7947672022E+01    0.6723902685E+01    0.1770053882E+01
59  4    0.1309234017E+02    0.3520889714E+01    0.1770053882E+01
60  4    0.1329390091E+02    0.9577816693E+01    0.1770053882E+01
61  4    0.5518019470E+01    0.1239596691E+02    0.1770053882E+01
62  4   -0.2049616105E+01    0.1840332852E+02    0.1770053882E+01
63  4   -0.3468349456E+01    0.8845856102E+01    0.1770053882E+01
64  4    0.5926637697E+01    0.7426610014E+01    0.1770053882E+01
65  4    0.1349427327E+02    0.1419248404E+01    0.1770053882E+01
66  4    0.1491300662E+02    0.1097672082E+02    0.1770053882E+01
67  4    0.2337107440E+01    0.1034667748E+02    0.1770053882E+01
68  4    0.1315557472E+01    0.1667318211E+02    0.1770053882E+01
69  4   -0.3652587550E+01    0.1262525449E+02    0.1770053882E+01
70  4    0.9107549727E+01    0.9475899446E+01    0.1770053882E+01
71  4    0.1012909969E+02    0.3149394818E+01    0.1770053882E+01
72  4    0.1509724472E+02    0.7197322440E+01    0.1770053882E+01
0.0000000000E+00    0.0000000000E+00    0.0000000000E+00
0.2288922729E+02    0.0000000000E+00    0.0000000000E+00
-0.1144457013E+02    0.1982257693E+02    0.0000000000E+00
0.0000000000E+00    0.0000000000E+00    0.3540107764E+01
}
Driver = ConjugateGradient {
  MovedAtoms = 1:-1
  MaxSteps = 100000
  LatticeOpt = Yes
  AppendGeometries = No
  FixAngles = Yes
  FixLengths = {
No No No
  }
  MaxForceComponent = 1e-4
  OutputPrefix = "1e-4-Out"
  Pressure = 0.0000000000000000
  MaxLatticeStep = 0.20000000000000001
  MaxAtomStep = 0.20000000000000001
  StepSize = 100.00000000000000
  Constraints = {}
}
Hamiltonian = DFTB {
  SCC = Yes
  SCCTolerance = 1e-5
  ReadInitialCharges = Yes
  MaxSCCIterations = 1000
  ThirdOrderFull = Yes
  Dispersion = LennardJones {
    Parameters = UFFParameters {}
  }
  HCorrection = Damping {
    Exponent = 4.05
  }
  HubbardDerivs = {
    O = -0.1575
    N = -0.1535
    H = -0.1857
    C = -0.1492
  }
  SlaterKosterFiles = Type2FileNames {
    Prefix = "/project/design-lab/software/DFTB+/3ob-3-1/"
    Separator = "-"
    Suffix = ".skf"
    LowerCaseTypeName = No
  }
  KPointsAndWeights = SupercellFolding {
4 0 0
0 4 0
0 0 4
0.5 0.5 0.5
  }
  MaxAngularMomentum = {
    O = p
    N = p
    H = s
    C = p
  }
  Filling = Fermi {
    Temperature [Kelvin] = 0
    IndependentKFilling = No
  }
  PolynomialRepulsive = {}
  ShellResolvedSCC = No
  OldSKInterpolation = No
  EwaldParameter = 0.0000000000000000
  EwaldTolerance = 1.0000000000000001E-009
  ConvergentSCCOnly = Yes
  SpinPolarisation = {}
  ElectricField = {}
  Solver = RelativelyRobust {}
  Charge = 0.0000000000000000
  OnSiteCorrection = {}
  Solvation = {}
  Electrostatics = GammaFunctional {}
  ThirdOrder = No
  Differentiation = FiniteDiff {
    Delta = 1.2207031250000000E-004
  }
  ForceEvaluation = "Traditional"
  Mixer = Broyden {
    MixingParameter = 0.20000000000000001
    InverseJacobiWeight = 1.0000000000000000E-002
    MinimalWeight = 1.0000000000000000
    MaximalWeight = 100000.00000000000
    WeightFactor = 1.0000000000000000E-002
  }
}
Parallel = {
  Groups = 1
  UseOmpThreads = Yes
  Blacs = BlockSize {
32
  }
}
ParserOptions = {
  ParserVersion = 14
  WriteHSDInput = Yes
  StopAfterParsing = No
  IgnoreUnprocessedNodes = No
}
Analysis = {
  MullikenAnalysis = Yes
  AtomResolvedEnergies = Yes
  WriteEigenvectors = Yes
  PrintForces = Yes
  ProjectStates = {}
  WriteBandOut = Yes
  WriteNetCharges = No
  EigenvectorsAsText = No
}
Options = {
  WriteChargesAsText = Yes
  WriteDetailedXML = Yes
  WriteDetailedOut = Yes
  WriteAutotestTag = No
  WriteResultsTag = No
  RandomSeed = 0
  WriteHS = No
  WriteRealHS = No
  MinimiseMemoryUsage = No
  ShowFoldedCoords = No
  TimingVerbosity = 1
  ReadChargesAsText = No
  WriteCharges = Yes
  SkipChargeTest = No
  BinaryAccessTypes = {
 "stream"
  }
}
Reks = None {}
ExcitedState = {}
